
%FILE DATA:	Soccer Computational Problem for MiniZinc Models	%
%AUTHOR:	Jack Wall	%
%CONTACT:  	116397063@umail.ucc.ie			%
%LAST UPDATE:	01/15/2020, 14:21:53						%
%DESCRIPTION: 	370 games played with 10 games left				%

n=20; %number of teams

%Games to play
games=[|16,1|1,11|14,20|4,1|16,2|17,11|12,17|7,9|13,17|5,6|];

%Initial points
iPoints=[47,53,47,44,60,43,40,47,40,49,60,41,52,56,46,49,39,52,53,59];

%POSITION CONSTRAINTS
% [|teamID, operator, position|...]
% operators index:
%  1 for =  operator
%  2 for >  operator
%  3 for >= operator
%  4 for <  operator
%  5 for <= operator
positionConstraints=[|3,3,12|16,1,20|];